c preprocessed version of random4reg, 48 vertices, 96 edges
p td 48 96
0 24
0 28
0 29
0 30
1 33
1 36
1 37
1 39
2 33
2 34
2 39
2 47
3 27
3 31
3 41
3 42
4 26
4 27
4 29
4 41
5 25
5 30
5 34
5 43
6 28
6 30
6 34
6 44
7 25
7 27
7 30
7 45
8 24
8 32
8 33
8 40
9 33
9 36
9 42
9 47
10 27
10 34
10 36
10 44
11 24
11 38
11 42
11 45
12 25
12 28
12 35
12 43
13 26
13 35
13 36
13 47
14 32
14 37
14 38
14 45
15 33
15 35
15 38
15 41
16 29
16 39
16 43
16 44
17 25
17 26
17 28
17 46
18 31
18 37
18 39
18 43
19 29
19 41
19 42
19 46
20 26
20 32
20 37
20 45
21 31
21 38
21 40
21 44
22 32
22 35
22 40
22 46
23 24
23 40
23 46
23 47
